Normalized Data/p04_6_normalized_split0.vrp
NAME:p04_6_NORMALIZED_split
BEST_KNOWN: 0
COMMENT: 0
DIMENSION: 621
CAPACITY: 100
EDGE_WEIGHT_FORMAT: FUNCTION
EDGE_WEIGHT_TYPE: EXACT_2D
NODE_COORD_SECTION
1 0.00000 0.00000
2 -2 -11
3 -2 -11
4 -2 -11
5 -2 -11
6 13 42
7 13 42
8 19 -26
9 19 -26
10 19 -26
11 19 -26
12 -6 -28
13 -6 -28
14 -6 -28
15 -20 11
16 -20 11
17 -20 11
18 -20 11
19 -20 11
20 10 -43
21 10 -43
22 10 -43
23 10 -43
24 10 -43
25 10 -43
26 11 -21
27 11 -21
28 -27 44
29 -27 44
30 -27 44
31 -27 44
32 -27 44
33 -27 44
34 6 9
35 6 9
36 6 9
37 6 9
38 6 9
39 6 9
40 6 9
41 -50 0
42 -50 0
43 28 14
44 28 14
45 28 14
46 28 14
47 -3 5
48 -3 5
49 -3 5
50 21 -43
51 21 -43
52 21 -43
53 10 -46
54 10 -46
55 10 -46
56 -16 26
57 -16 26
58 -16 26
59 -16 26
60 -16 26
61 17 6
62 17 6
63 -3 -49
64 -3 -49
65 -3 -49
66 -28 41
67 -28 41
68 -28 41
69 -28 41
70 -28 41
71 -28 41
72 -28 41
73 -10 47
74 -10 47
75 -10 47
76 48 38
77 48 38
78 48 38
79 48 38
80 48 38
81 48 38
82 48 38
83 7 -11
84 7 -11
85 7 -11
86 -25 48
87 -25 48
88 -25 48
89 -25 48
90 -25 48
91 28 -50
92 28 -50
93 28 -50
94 28 -50
95 28 -50
96 28 -50
97 -28 50
98 -28 50
99 9 37
100 9 37
101 9 37
102 -19 -8
103 -19 -8
104 17 48
105 17 48
106 17 48
107 17 48
108 17 48
109 23 -28
110 23 -28
111 -27 -29
112 -27 -29
113 -27 -29
114 -41 -7
115 -41 -7
116 -41 -7
117 -41 -7
118 -41 -7
119 44 45
120 44 45
121 44 45
122 44 45
123 44 45
124 -6 -17
125 -6 -17
126 -6 -17
127 31 -31
128 31 -31
129 31 -31
130 31 -31
131 31 -31
132 31 -31
133 38 -22
134 38 -22
135 38 -22
136 38 -22
137 38 -22
138 -13 48
139 -13 48
140 -13 48
141 -13 48
142 -13 48
143 -15 25
144 -15 25
145 44 0
146 44 0
147 44 0
148 44 0
149 44 0
150 -36 5
151 -12 7
152 -12 7
153 -12 7
154 -12 7
155 -10 29
156 -10 29
157 -10 29
158 40 37
159 40 37
160 40 37
161 40 37
162 40 37
163 40 37
164 40 37
165 -29 43
166 -29 43
167 -29 43
168 -29 43
169 -29 43
170 -29 43
171 11 -25
172 11 -25
173 11 -25
174 -47 -45
175 -47 -45
176 -47 -45
177 -47 -45
178 -47 -45
179 -47 -45
180 9 -47
181 9 -47
182 -24 -9
183 -24 -9
184 -24 -9
185 -24 -9
186 -24 -9
187 23 -22
188 23 -22
189 23 -22
190 23 -22
191 23 -22
192 23 -22
193 23 -22
194 35 7
195 35 7
196 17 20
197 17 20
198 17 20
199 17 20
200 -29 -41
201 -29 -41
202 -29 -41
203 -29 -41
204 -29 -41
205 32 -35
206 32 -35
207 32 -35
208 -30 -34
209 -30 -34
210 -30 -34
211 43 -30
212 43 -30
213 43 -30
214 43 -30
215 43 -30
216 24 46
217 24 46
218 24 46
219 24 46
220 24 46
221 24 46
222 18 21
223 18 21
224 18 21
225 -33 -1
226 -33 -1
227 -33 -1
228 -33 -1
229 23 -20
230 23 -20
231 11 21
232 11 21
233 11 21
234 35 36
235 35 36
236 35 36
237 -50 17
238 -50 17
239 -50 17
240 -50 17
241 -50 17
242 -18 2
243 -18 2
244 -18 2
245 25 44
246 25 44
247 25 44
248 25 44
249 25 44
250 46 23
251 46 23
252 46 23
253 46 23
254 41 -3
255 41 -3
256 41 -3
257 26 -27
258 26 -27
259 26 -27
260 26 -27
261 45 43
262 45 43
263 14 1
264 14 1
265 14 1
266 14 1
267 14 1
268 14 1
269 14 1
270 -23 38
271 -23 38
272 -23 38
273 -23 38
274 -23 38
275 27 49
276 27 49
277 27 49
278 27 49
279 27 49
280 24 -11
281 24 -11
282 24 -11
283 24 -11
284 -42 50
285 -42 50
286 -42 50
287 32 7
288 32 7
289 32 7
290 -33 -6
291 -33 -6
292 -33 -6
293 -33 -6
294 -33 -6
295 -33 -6
296 -33 -6
297 -14 2
298 -14 2
299 -14 2
300 -14 2
301 -14 2
302 -14 2
303 -14 2
304 -43 -22
305 -43 -22
306 -43 -22
307 -43 -22
308 -43 -22
309 -35 -31
310 -35 -31
311 -35 -31
312 -35 -31
313 -35 -31
314 -48 -16
315 -48 -16
316 -48 -16
317 -48 -16
318 -48 -16
319 17 -46
320 17 -46
321 17 -46
322 33 48
323 33 48
324 33 48
325 33 48
326 33 48
327 33 48
328 -4 2
329 -4 2
330 39 49
331 39 49
332 39 49
333 39 49
334 39 49
335 39 49
336 -26 28
337 -26 28
338 -26 28
339 -24 -13
340 -24 -13
341 -24 -13
342 -24 -13
343 47 -18
344 47 -18
345 47 -18
346 47 -18
347 47 -18
348 50 43
349 50 43
350 49 8
351 49 8
352 49 8
353 49 8
354 3 43
355 3 43
356 3 43
357 3 43
358 3 43
359 37 -32
360 37 -32
361 37 -32
362 -17 -18
363 -17 -18
364 5 28
365 5 28
366 5 28
367 5 28
368 18 -20
369 18 -20
370 18 -20
371 18 -20
372 18 -20
373 46 -23
374 46 -23
375 46 -23
376 46 -23
377 46 -23
378 46 -23
379 -50 -3
380 -50 -3
381 -50 -3
382 -36 -41
383 -36 -41
384 -3 -40
385 -3 -40
386 -3 -40
387 -3 -40
388 37 -2
389 37 -2
390 -25 -14
391 -25 -14
392 -25 -14
393 -25 -14
394 -25 -14
395 -25 -14
396 -25 -14
397 2 -48
398 2 -48
399 2 -48
400 -7 -26
401 -7 -26
402 -7 -26
403 -7 -26
404 -18 -19
405 19 -21
406 19 -21
407 19 -21
408 19 -21
409 19 -21
410 19 -21
411 -2 -30
412 -2 -30
413 -2 -30
414 -2 -30
415 37 37
416 37 37
417 -29 -48
418 -29 -48
419 -29 -48
420 -29 -48
421 -29 -48
422 -29 -48
423 -29 -48
424 -39 3
425 -39 3
426 -39 3
427 -39 3
428 -39 3
429 -39 3
430 9 44
431 9 44
432 9 44
433 9 44
434 9 44
435 9 44
436 9 44
437 37 -50
438 37 -50
439 37 -50
440 29 23
441 29 23
442 29 23
443 29 23
444 47 -2
445 47 -2
446 47 -2
447 47 -2
448 -49 9
449 -49 9
450 -49 9
451 -49 9
452 -49 9
453 4 -22
454 4 -22
455 4 -22
456 4 -22
457 4 -22
458 -11 -12
459 -11 -12
460 -11 -12
461 -11 -12
462 -46 8
463 -46 8
464 -46 8
465 -46 8
466 -2 42
467 -2 42
468 -2 42
469 -2 42
470 -2 42
471 -2 42
472 0 37
473 0 37
474 0 37
475 0 37
476 41 4
477 41 4
478 41 4
479 41 4
480 41 4
481 46 -37
482 46 -37
483 46 -37
484 46 -37
485 46 -37
486 10 29
487 10 29
488 10 29
489 10 29
490 10 29
491 10 29
492 -43 -36
493 -43 -36
494 -43 -36
495 -43 -36
496 -43 -36
497 -43 -36
498 -43 -36
499 28 41
500 28 41
501 28 41
502 28 41
503 -22 -24
504 -22 -24
505 -22 -24
506 -22 -24
507 -22 -24
508 1 -23
509 1 -23
510 1 -23
511 1 -23
512 1 -23
513 -27 14
514 -27 14
515 14 48
516 14 48
517 14 48
518 14 48
519 -39 20
520 -39 20
521 -39 20
522 -39 20
523 -39 20
524 -39 20
525 -39 20
526 30 36
527 30 36
528 50 -15
529 -18 -5
530 -18 -5
531 -18 -5
532 -18 -5
533 38 -43
534 38 -43
535 38 -43
536 38 -43
537 -20 -20
538 -20 -20
539 -20 -20
540 -20 -20
541 -20 -20
542 -20 -20
543 -20 -20
544 -10 -27
545 -10 -27
546 -10 -27
547 -10 -27
548 -10 -27
549 -10 -27
550 28 -14
551 28 -14
552 28 -14
553 -17 28
554 -17 28
555 -17 28
556 -2 -41
557 -2 -41
558 -2 -41
559 -2 -41
560 -37 15
561 -37 15
562 -37 15
563 -37 15
564 -37 15
565 -37 15
566 -40 -45
567 -40 -45
568 -40 -45
569 -40 -45
570 -4 8
571 -4 8
572 -4 8
573 -4 8
574 -4 8
575 46 45
576 46 45
577 46 45
578 46 45
579 -22 -34
580 -22 -34
581 -22 -34
582 -3 -48
583 -3 -48
584 -3 -48
585 -3 -48
586 -3 -48
587 47 -33
588 47 -33
589 47 -33
590 47 -33
591 14 5
592 14 5
593 14 5
594 14 5
595 14 5
596 26 23
597 8 -9
598 8 -9
599 8 -9
600 -32 25
601 -32 25
602 -32 25
603 -32 25
604 -32 25
605 -25 16
606 -25 16
607 -25 16
608 -25 16
609 -25 16
610 -18 -46
611 -18 -46
612 -18 -46
613 44 13
614 44 13
615 44 13
616 -10 -8
617 -10 -8
618 -10 -8
619 24 -27
620 24 -27
621 24 -27
DEMAND_SECTION
1 0
2 20
3 5
4 1
5 1
6 20
7 5
8 20
9 20
10 5
11 1
12 10
13 5
14 1
15 20
16 1
17 1
18 1
19 1
20 10
21 5
22 1
23 1
24 1
25 1
26 20
27 20
28 20
29 5
30 1
31 1
32 1
33 1
34 20
35 20
36 5
37 1
38 1
39 1
40 1
41 20
42 5
43 20
44 1
45 1
46 1
47 20
48 10
49 5
50 10
51 5
52 1
53 20
54 20
55 1
56 20
57 5
58 1
59 1
60 1
61 20
62 1
63 20
64 20
65 1
66 20
67 20
68 5
69 1
70 1
71 1
72 1
73 10
74 5
75 1
76 20
77 10
78 5
79 1
80 1
81 1
82 1
83 10
84 5
85 1
86 20
87 10
88 1
89 1
90 1
91 20
92 20
93 1
94 1
95 1
96 1
97 10
98 5
99 20
100 10
101 1
102 20
103 5
104 20
105 20
106 1
107 1
108 1
109 20
110 5
111 20
112 1
113 1
114 10
115 1
116 1
117 1
118 1
119 10
120 1
121 1
122 1
123 1
124 20
125 10
126 5
127 20
128 10
129 5
130 1
131 1
132 1
133 20
134 1
135 1
136 1
137 1
138 20
139 20
140 1
141 1
142 1
143 20
144 1
145 20
146 10
147 1
148 1
149 1
150 20
151 20
152 10
153 5
154 1
155 20
156 1
157 1
158 20
159 10
160 5
161 1
162 1
163 1
164 1
165 20
166 20
167 1
168 1
169 1
170 1
171 20
172 20
173 1
174 20
175 10
176 5
177 1
178 1
179 1
180 10
181 5
182 20
183 5
184 1
185 1
186 1
187 20
188 10
189 5
190 1
191 1
192 1
193 1
194 20
195 10
196 20
197 20
198 1
199 1
200 20
201 10
202 1
203 1
204 1
205 20
206 5
207 1
208 20
209 5
210 1
211 20
212 1
213 1
214 1
215 1
216 20
217 10
218 1
219 1
220 1
221 1
222 20
223 5
224 1
225 20
226 10
227 1
228 1
229 20
230 10
231 10
232 1
233 1
234 20
235 1
236 1
237 20
238 20
239 5
240 1
241 1
242 20
243 10
244 5
245 20
246 1
247 1
248 1
249 1
250 20
251 1
252 1
253 1
254 10
255 1
256 1
257 10
258 1
259 1
260 1
261 20
262 20
263 20
264 10
265 5
266 1
267 1
268 1
269 1
270 10
271 5
272 1
273 1
274 1
275 20
276 20
277 5
278 1
279 1
280 20
281 1
282 1
283 1
284 20
285 10
286 1
287 10
288 1
289 1
290 20
291 20
292 5
293 1
294 1
295 1
296 1
297 20
298 20
299 5
300 1
301 1
302 1
303 1
304 20
305 10
306 5
307 1
308 1
309 20
310 5
311 1
312 1
313 1
314 20
315 5
316 1
317 1
318 1
319 20
320 1
321 1
322 20
323 10
324 5
325 1
326 1
327 1
328 20
329 1
330 20
331 5
332 1
333 1
334 1
335 1
336 20
337 20
338 1
339 20
340 5
341 1
342 1
343 20
344 10
345 1
346 1
347 1
348 20
349 20
350 20
351 20
352 1
353 1
354 20
355 5
356 1
357 1
358 1
359 20
360 20
361 1
362 20
363 10
364 20
365 20
366 1
367 1
368 20
369 5
370 1
371 1
372 1
373 20
374 10
375 1
376 1
377 1
378 1
379 20
380 20
381 1
382 20
383 10
384 20
385 1
386 1
387 1
388 20
389 5
390 20
391 20
392 5
393 1
394 1
395 1
396 1
397 20
398 20
399 10
400 20
401 1
402 1
403 1
404 20
405 20
406 20
407 5
408 1
409 1
410 1
411 20
412 5
413 1
414 1
415 20
416 1
417 20
418 10
419 5
420 1
421 1
422 1
423 1
424 20
425 5
426 1
427 1
428 1
429 1
430 20
431 20
432 5
433 1
434 1
435 1
436 1
437 20
438 10
439 1
440 10
441 5
442 1
443 1
444 20
445 10
446 1
447 1
448 20
449 20
450 1
451 1
452 1
453 20
454 5
455 1
456 1
457 1
458 20
459 5
460 1
461 1
462 10
463 5
464 1
465 1
466 10
467 5
468 1
469 1
470 1
471 1
472 20
473 10
474 5
475 1
476 10
477 5
478 1
479 1
480 1
481 20
482 10
483 5
484 1
485 1
486 20
487 5
488 1
489 1
490 1
491 1
492 20
493 20
494 5
495 1
496 1
497 1
498 1
499 20
500 10
501 1
502 1
503 10
504 5
505 1
506 1
507 1
508 20
509 5
510 1
511 1
512 1
513 20
514 1
515 10
516 5
517 1
518 1
519 20
520 10
521 5
522 1
523 1
524 1
525 1
526 20
527 10
528 20
529 10
530 1
531 1
532 1
533 20
534 20
535 5
536 1
537 20
538 10
539 5
540 1
541 1
542 1
543 1
544 20
545 10
546 5
547 1
548 1
549 1
550 10
551 5
552 1
553 20
554 20
555 10
556 20
557 5
558 1
559 1
560 20
561 20
562 1
563 1
564 1
565 1
566 20
567 20
568 5
569 1
570 20
571 5
572 1
573 1
574 1
575 20
576 5
577 1
578 1
579 20
580 20
581 5
582 10
583 1
584 1
585 1
586 1
587 20
588 10
589 5
590 1
591 20
592 20
593 1
594 1
595 1
596 20
597 20
598 10
599 1
600 20
601 5
602 1
603 1
604 1
605 20
606 1
607 1
608 1
609 1
610 20
611 10
612 5
613 20
614 5
615 1
616 20
617 20
618 10
619 20
620 20
621 5
DEPOT_SECTION
1
-1
EOF