Normalized Data/p04_6_normalized_split0.sol
620 -4 2 1 3 616 615 617 328 327 -10 7 8 9 109 108 619 369 368 370 -16 14 607 604 512 513 423 424 427 428 243 298 -22 19 21 23 24 20 53 54 52 179 180 319 318 320 -29 31 28 27 32 30 88 89 85 87 97 96 283 284 285 -34 36 38 33 37 570 572 571 569 47 46 -35 196 198 197 195 230 232 231 364 363 365 -39 500 324 322 326 325 323 321 332 333 334 330 329 331 526 525 -43 44 42 45 287 288 286 194 193 387 388 -48 142 143 336 337 335 600 601 603 599 602 -50 51 49 92 90 94 93 95 91 437 438 436 534 535 206 258 -56 55 58 57 59 552 554 553 154 156 155 -68 65 70 67 71 66 69 168 164 167 169 165 166 272 270 273 -77 80 78 79 75 81 76 348 347 157 -83 82 84 25 26 171 170 172 -101 291 295 293 289 292 290 225 226 224 227 -102 341 339 340 338 393 390 389 394 391 392 395 184 182 528 531 529 530 -111 112 209 208 207 199 203 202 201 200 418 420 419 421 417 422 416 -114 115 378 379 380 41 40 461 149 -118 120 119 122 121 575 574 577 576 260 261 162 161 163 159 160 158 -124 125 123 507 508 510 511 509 453 454 456 455 452 -132 358 359 533 532 -151 17 15 18 608 606 605 521 523 522 519 518 520 524 561 560 564 562 563 559 -153 152 150 241 242 296 300 301 299 297 302 -175 178 177 174 176 173 565 568 566 567 382 505 504 506 -185 183 181 304 305 307 303 306 313 317 315 314 316 113 116 117 294 -186 188 190 192 187 228 229 551 549 280 281 279 -189 191 360 480 482 484 483 481 589 586 587 588 213 211 210 214 212 -221 223 222 235 234 233 414 415 439 595 -237 240 236 238 239 451 447 449 448 450 463 462 464 425 426 -246 247 218 215 216 220 219 217 107 103 104 106 105 515 517 516 514 -248 244 245 278 274 276 275 277 498 499 501 -254 255 253 446 445 444 443 147 148 144 146 145 475 476 479 478 477 265 267 266 268 -256 259 257 128 127 130 126 131 129 204 205 620 618 -262 263 264 61 60 592 590 593 591 594 -282 550 135 133 134 136 372 374 376 375 373 377 345 346 344 342 343 527 -311 308 309 312 310 491 493 492 497 496 494 495 381 -349 351 352 350 612 613 614 249 251 252 250 440 441 442 -362 540 538 503 502 110 578 579 580 -366 435 429 431 432 434 433 430 5 6 485 488 487 489 490 -384 385 556 558 582 585 581 584 583 64 63 62 611 610 609 -396 397 398 557 555 386 383 413 412 411 -407 406 409 404 408 405 371 367 598 596 597 -410 13 11 12 402 400 401 399 544 547 543 546 548 545 -459 457 458 460 361 403 537 542 536 539 541 -468 469 470 467 466 465 74 73 72 140 139 138 141 137 86 271 269 573 -472 474 473 471 356 355 357 354 353 98 99 100 486 0 





OBJ=
4385.357
BEST_KNOWN=
0.000